(set-info :status unknown)
(declare-const symbol_35 (_ BitVec 32))
(declare-const symbol_25 (_ BitVec 32))
(declare-const symbol_27 (_ BitVec 32))
(declare-const symbol_17 (_ BitVec 32))
(declare-const symbol_33 (_ BitVec 32))
(declare-const symbol_54 (_ BitVec 32))
(declare-const symbol_45 (_ BitVec 32))
(declare-const symbol_49 (_ BitVec 32))
(declare-const symbol_4 (_ BitVec 32))
(declare-const symbol_29 (_ BitVec 32))
(declare-const symbol_23 (_ BitVec 32))
(declare-const symbol_15 (_ BitVec 32))
(declare-const symbol_0 (_ BitVec 32))
(declare-const symbol_9 (_ BitVec 32))
(declare-const symbol_47 (_ BitVec 32))
(declare-const symbol_11 (_ BitVec 32))
(declare-const symbol_6 (_ BitVec 32))
(declare-const symbol_1 (_ BitVec 32))
(declare-const symbol_41 (_ BitVec 32))
(declare-const symbol_37 (_ BitVec 32))
(declare-const symbol_21 (_ BitVec 32))
(declare-const symbol_19 (_ BitVec 32))
(declare-const symbol_43 (_ BitVec 32))
(declare-const symbol_51 (_ BitVec 32))
(declare-const symbol_31 (_ BitVec 32))
(declare-const symbol_13 (_ BitVec 32))
(declare-const symbol_56 (_ BitVec 32))
(declare-const symbol_39 (_ BitVec 32))
(declare-const symbol_8 (_ BitVec 32))
(assert (not (= symbol_56 (_ bv6 32))))
(assert (not (not (= symbol_56 (_ bv7 32)))))
(assert (not (not (= symbol_54 (_ bv7 32)))))
(assert (not (not (= symbol_51 (_ bv7 32)))))
(assert (not (not (= symbol_49 (_ bv7 32)))))
(assert (not (not (= symbol_47 (_ bv7 32)))))
(assert (not (not (= symbol_45 (_ bv7 32)))))
(assert (not (not (= symbol_43 (_ bv7 32)))))
(assert (not (not (= symbol_41 (_ bv7 32)))))
(assert (not (not (= symbol_39 (_ bv7 32)))))
(assert (not (not (= symbol_37 (_ bv7 32)))))
(assert (not (not (= symbol_35 (_ bv7 32)))))
(assert (not (not (= symbol_33 (_ bv7 32)))))
(assert (not (not (= symbol_31 (_ bv7 32)))))
(assert (not (not (= symbol_29 (_ bv7 32)))))
(assert (not (not (= symbol_27 (_ bv7 32)))))
(assert (not (not (= symbol_25 (_ bv7 32)))))
(assert (not (not (= symbol_23 (_ bv7 32)))))
(assert (not (not (= symbol_21 (_ bv7 32)))))
(assert (not (not (= symbol_19 (_ bv7 32)))))
(assert (not (not (= symbol_17 (_ bv7 32)))))
(assert (not (not (= symbol_15 (_ bv7 32)))))
(assert (not (not (= symbol_13 (_ bv7 32)))))
(assert (not (not (= symbol_11 (_ bv7 32)))))
(assert (not (not (= symbol_9 (_ bv7 32)))))
(assert (not (not (= symbol_8 (_ bv7 32)))))
(assert (not (not (= symbol_6 (_ bv7 32)))))
(assert (not (not (= symbol_4 (_ bv7 32)))))
(assert (not (not (= symbol_1 (_ bv7 32)))))
(assert (not (not (= symbol_0 (_ bv7 32)))))
(check-sat)